unsat
(:cnf-encoding-aux-vars   178
 :eliminated-applications 3
 :eliminated-vars         138
 :max-memory              20.01
 :memory                  19.01
 :nlsat-conflicts         9
 :nlsat-decisions         10
 :nlsat-learned-added     8
 :nlsat-propagations      35
 :num-allocs              46412
 :rlimit-count            141103
 :time                    0.07
 :total-time              0.08)
